     60      2     48    567     12
     39     39
     40     46     48     48     47     50     32     51     25      5     31     28     11     26     21      2     54     24     29     53     23     11     48     26     45      6     49     59     23     30     52      9     50     57     39     35     48     14     57     35     24     18      8     59     31     48     57      4     30     34     44     40     58     55      9     37     43     44     44      5     30     31     46     52     33     12     45     24     51     40     27     57     26      9      2      1      2     23     59     58     47     53     34     45      7     28     15     26     34      2     36      2      9     35     27     59      6     50     47     40     56      6     17     37      8     35     15     53      3      1      6      2     23     47      7     28      1     25     47     12     45      6     19     43     25     21      6     37      0     15     45     41     15     36      4     43     30     22     42     16     44     23      1     25     40     13     46     32      3     54     47     56     37      8      3      7     52     38     28     32     21     29     18     52     17     33      8     51     34     10     52     36     40     11     35     52      0     54     58     27
    141    247     42    101    240    234    231     69    162     47     55     35      7     31     62      4     57      3     71     19     41     11     69     32     29     49     36     31     40     56     -8     34     17     72     -6     26     14     17     28     68
      6     12     13	    483    164     45     46      5      0      0     58      0      0      0     -2      0      0    228      0      0    125      0      0      0      0      0      0      0      0      0      0      0      0      0      0      0      0    103      0      0      0      0    199      0      9      0    103      0      0      0      0      0      0      0     21      0      0      0      0      0      0      0      0      0      0    102      0      0
     11     15     10	    478     90     26     31      8      0      0      0      0     79      0      0     17      0      0      0      0      0      0      0      0      0      0    193      0      0     58      0      0    -23      0    176      0      0      0      0      0      0      0      0      0      0      0      0      0      0      0      0      0    210     85      0    -15      0      0      0      0      0    298      0      0      0      0      0      0
     12     13     12	    106     66     27     46      4     58      0      0     35      0      0      0     68     73      0      0     78      0      0      0      0      0      0     24      0      0     84      0      0      0      8      0      0      0      0      0      0      0      0      0      0      0      9      0      0     16      0     19      0      0      0      0      0      0      0      0      0      0      0     15     20      0      0     49      0
      7     10     15	    255     76     41     41      4      0      0     35      0      0      0      0    125      0      0      0      0      0      0      0     50      0      0      0      0      7      0      0    -35      0      0      0      0     -2      0      0      0      0    -27    128      0     92     45     30      0      0      0      0      0    161      0      0      0    137      0      0      0      0    -16      0      0      0      0      0      0
      8     11     15	    362     50     18     25      3      0     79      0      0      0      0    -16      0      0      0      0      0      0      0      0      0      0      0      0      0      0      0    124      0     98      0      0      0      0      0    201      0     -8    118      0      0      0      0    276      0    -66      0      0    -44      0      0      0      0      0      0      0      0      0      0      0      0      0      0     70      0
      9     14     10	    438    112     28     43      2      0      0      0      0      0      0      0      0    149      0      0      0      0      0     58      0      0      0      0      0      0      0      0      0     11      0      0     85      0      0      0      0      0      0      0      0      0      0      0      0      0      0      0      0      0      0      0      0      0    190      0      0    104      0    120      0      0      0    311    169
     10     12     10	    388     91     38     44      5     -2      0      0      0    -16      0      0      0      0      0      0      0      0      0      0      0      0      0      0     40    -15    -24      0     29      0      0      0      0      0      0      0      0      0      0      0      0      0      0      0      0      0      0     44      0      0      0      0      0      0      0    162      0      0    265      0      0      0     39      0      0
     11     11     12	    163    102     28     35      7      0     17     68    125      0      0      0      0      0      0      0      0      0      0      0      0      0      0      0      0     57     -7      0      0      0      0     56      0      0      0     12     62      0      0      0      0      0     10      0      0      0      0      0    -30      0     -1      0      0      0     86      0      0      0      0      0      0      0      0      0     52
      8     13     15	    250     95     42     44      3      0      0     73      0      0    149      0      0      0      0      0      0      0      0      0      0      0      0      0      0      0      0      0     34      0     27      0    -38      0      0      0      0      0      0      0     84      0      0      0      0     25      0      0      0     45      0      0      0      0     55      0    110      0      0      0      0      0      0      0      0
      8     12     10	    404    278     34     44      6    228      0      0      0      0      0      0      0      0      0    277      0      0     -2      0     68      0      0      0      0      0      0      0      0      0      0      0      0      5    -29      0      0      0      0    321      0      0    229      0      0      0      0      0      0      0      0      0    101    153      0      0      0      0      0      0      0      0     -4    144      0
      7     14     14	    414    201     18     32      6      0      0      0      0      0      0      0      0      0    277      0    -63      0      0      0      0      0      0    149      0      0      0    222      0      0     54      0      0      0      0    187      0      0     33      0      0      0      0      0      0     35      0      0     82     11      0    245      0    -18      0      0      0      0      0     19    165    124    109      0      0
     11     11     12	    360    237     32     44      9      0      0     78      0      0      0      0      0      0      0    -63      0    179     83      0      0      0      0      0      0      0      0      0      0      0      0      0      0      0    -31      0      0      0      0    186      0      0      0      0      0      0    101      0      0      0     31      0      0    164      0      0      0      0     66      0      2      0      0    215    -14
     11     13     12	    424    199     15     25      3    125      0      0      0      0      0      0      0      0      0      0    179      0      0      0      0      0      0      0      0      0      0      0      0    106      0      0      0      0      0      0      0      0      0      0    -41     -9      0      0      0    309      0      0      0      0      0    109      0      0    246      0      0      0    108      0      0    196     47      0      0
      9     10     11	    113     64     13     40      7      0      0      0      0      0      0      0      0      0     -2      0     83      0      0    -20      0      0      0      0      0      0      0      0      0      0      0     23      0      0      0      0      0     14      0     -2      0      0      0     75      0      0      0      0      0     65      0      0      0      0     64     29      0      0      0      0      0      0      0      0      0
      6     13     15	    105     61     13     37      3      0      0      0      0      0     58      0      0      0      0      0      0      0    -20      0      0     59      0      0      0      0     60     15      0      0      0      0      0      7      0      0      0      0     73      0      0      0      0      0      0      0      0      0     78      0      0      0      0      0      0      0      0      0      0     48     63      0      0      0      0
     11     10     11	    108     73     39     40      6      0      0      0     50      0      0      0      0      0     68      0      0      0      0      0      0      0      0      0      0      0    -17     83      0      0     57    -18    -20      0      0      0      0      0      0    -21      0      0      0     57      0      0      0      0      0      0      0     19     58      0     31      0      2     69     64      0      0      0      0      0     -8
     10     15     10	    417     65     35     41      1      0      0      0      0      0      0      0      0      0      0      0      0      0      0     59      0      0      0      0    189      0      0      0      0      0     45      0    106      1      0      0     29    163      0    185    -50      0      0     91      0    -14    174      0      0      0      0      0      0      0      0     92      0     82      0      0      0      0      0    170      0
      6     14     14	    215    111     34     34      6      0      0      0      0      0      0      0      0      0      0      0      0      0      0      0      0      0      0      0      0      0      0      0      0      0      0      0     88     75      0      0     43     32      0      0      0      0      0      0     80      0      0      0      0     91     17      0      0      0      0     15     43      0      0    -22      0     73      0      0      0
      6     11     12	    289    123     12     22      8      0    193     24      0      0      0      0      0      0      0    149      0      0      0      0      0      0      0      0      0      0      0      0      0      0      0      0      0     94      0      0      0      0      8      0      0      0      0      0    164      0      0      0      0      0      9      0      0    156     -2      0      0     -1      0      0      0      0      0      0      0
      8     11     12	    476    329     16     41     10      0      0      0      0      0      0     40      0      0      0      0      0      0      0      0      0    189      0      0      0      0      0      0     94     31      0      0    174      0      0      0    -23      0      0    171      0      0      0      0      0     22      0      0     68      0      0      0      0      0      0      0      0      0      0      0    140      0      0    339      0
     10     10     11	    297    163     33     35      1      0      0      0      7      0      0    -15     57      0      0      0      0      0      0      0      0      0      0      0      0      0      0      0      0      0      0    163    196      0    116      0      0      0      0      0      0      0      0      0    211    -56      0      0      0    213      0    200      0      0      0      0      0      0      0      0      0      0      0      0      0
     11     14     15	    454    215     39     42      4      0     58     84      0      0      0    -24     -7      0      0      0      0      0      0     60    -17      0      0      0      0      0      0      0      0      0    -17      0      0    110    158      0      0      0      0      0      0      0      0      0      0      0      0     96      0      0      0    250     15    355      0      0      0      0      0      0      0      0     76     73      0
     10     10     12	    279     76     16     29      1      0      0      0      0    124      0      0      0      0      0    222      0      0      0     15     83      0      0      0      0      0      0      0      0      0      0      0      0      1      0      0    116     -6      0      0     44      0      0      0      0      0      0      0      0      0     83      0      0      0      0      0    -41    189      0      0      0      0      0      0      0
      8     12     11	    262     61     30     46      8      0      0      0    -35      0      0     29      0     34      0      0      0      0      0      0      0      0      0      0     94      0      0      0      0      0      0      0      0      0      0    101      0      0      0     28      0      0      0      0      0      0     25      0      0      0      0      0      0      0      0      0      0      0      0      0      0      0     51      0      0
      6     12     15	    133     71      9     42      9      0    -23      0      0     98     11      0      0      0      0      0      0    106      0      0      0      0      0      0     31      0      0      0      0      0      0      0      0      0      0      0      0     97      0      0    104      0      0      0      0      0     43      0      0      0    -10      0      0     65     59      0      0      0      0     57      0      0      0      0      0
      7     12     11	    119     70     16     44      1      0      0      8      0      0      0      0      0     27      0     54      0      0      0      0     57     45      0      0      0      0    -17      0      0      0      0      0      0      0      0      0      0      0      0      0      0     11      0     73      0      0      0     95     -6      0      0      0      0      0      0      0      0      0      0      0      0     82      0     22      0
      8     11     10	    366    217     47     47      4      0    176      0      0      0      0      0     56      0      0      0      0      0     23      0    -18      0      0      0      0    163      0      0      0      0      0      0      0      0      0      0      0      0      0      0      0      0      0      0      0    170      0      0      0      0      0      0      0      0      0      0      0      0      0      0      0      0     19      0      0
     10     13     10	    247     87     12     17      1      0      0      0      0      0     85      0      0    -38      0      0      0      0      0      0    -20    106     88      0    174    196      0      0      0      0      0      0      0      0      0      0      0      0      0      0      0      0      0      0    -25      0     87      0      0      0      0      0      0      0      0      0      0      0      0      0      0      0      0      0      9
     12     12     10	    175    114     19     19      6      0      0      0     -2      0      0      0      0      0      5      0      0      0      0      7      0      1     75     94      0      0    110      1      0      0      0      0      0      0      0      0      0      0      0      0      0      0      0      0      0     65      0      0      0      0     78      0      0      0      0      0      0      0     51      0      1      0      0      0      0
      7     13     11	    245     93     29     35      6    103      0      0      0      0      0      0      0      0    -29      0    -31      0      0      0      0      0      0      0      0    116    158      0      0      0      0      0      0      0      0      0      0      0      0      0     85      0      0      0      0    -24      0      0      0      0      0      0      0      0      0    151      0      0      0      0      0      0      0      0      0
      7     12     11	    262     86     41     45     10      0      0      0      0    201      0      0     12      0      0    187      0      0      0      0      0      0      0      0      0      0      0      0    101      0      0      0      0      0      0      0      0    -19     98      0      0      0      0      0      0      0      0      0      0      0      0     80    161    106    108      0      0    148      0      0      0      0      0      0      0
     10     14     13	    187    127     39     46      8      0      0      0      0      0      0      0     62      0      0      0      0      0      0      0      0     29     43      0    -23      0      0    116      0      0      0      0      0      0      0      0      0      0      0    -28      0      0      0      0      0      0      0      0    129    133      8      0      0      0      0      0      0      0      0      0      0      0     45     24      0
      6     14     11	    252    127     44     47      6      0      0      0      0     -8      0      0      0      0      0      0      0      0     14      0      0    163     32      0      0      0      0     -6      0     97      0      0      0      0      0    -19      0      0      0      0      0      0    197     83      0    -19      0     72      0      0     64      0      0      0      0      0      0      0      0     73    199      0      0      0      0
     12     10     10	    155     67     48     48      5      0      0      0    -27    118      0      0      0      0      0     33      0      0      0     73      0      0      0      8      0      0      0      0      0      0      0      0      0      0      0     98      0      0      0      0      0      0      0      0    -28      0      0      0      0      0     53    113      0      0      0      0      0      0      0     97      0    -26      0      0      2
     10     12     12	    483    226     26     39      1    199      0      0    128      0      0      0      0      0    321      0    186      0     -2      0    -21    185      0      0    171      0      0      0     28      0      0      0      0      0      0      0    -28      0      0      0      0      0     -2      0    182    323      0      0      0      0      0      0      0    315    289      0      0      0      0      0      0      0      0      0      0
      7     14     15	    274    154     33     34      2      0      0      0      0      0      0      0      0     84      0      0      0    -41      0      0      0    -50      0      0      0      0      0     44      0    104      0      0      0      0     85      0      0      0      0      0      0      0      0      0      0      0      0      0      0      0      0    -13      0      0     40      0      0      0    102      0      0      0      0    -33      0
      7     15     12	    131     84     22     28      4      9      0      0     92      0      0      0      0      0      0      0      0     -9      0      0      0      0      0      0      0      0      0      0      0      0     11      0      0      0      0      0      0      0      0      0      0      0     64      0      0      0     18      0      0      0      0      0      0     47     47      0     91     22     43      0      0     93      0      0      0
      9     15     13	    396    249     13     19      1      0      0      9     45      0      0      0     10      0    229      0      0      0      0      0      0      0      0      0      0      0      0      0      0      0      0      0      0      0      0      0      0    197      0     -2      0     64      0     64      0      0      0      0      0    139     55      0      0      0      0      0      0      0      0      0      0      0      0     78    -54
      8     10     11	    429     57     46     48      9    103      0      0     30    276      0      0      0      0      0      0      0      0     75      0     57     91      0      0      0      0      0      0      0      0     73      0      0      0      0      0      0     83      0      0      0      0     64      0    -18      0      0    -22     17      0      0      0      0    110      0    -30    219     72      0      0      0      0      0      0      0
     10     14     13	    364    109     20     46      2      0      0      0      0      0      0      0      0      0      0      0      0      0      0      0      0      0     80    164      0    211      0      0      0      0      0      0    -25      0      0      0      0      0    -28    182      0      0      0    -18      0     -4     15      0     58      0      0      0     25      0     15      0    209      0      0    176      0      0    -10      0      0
     12     14     13	    413     84     36     47      8      0      0     16      0    -66      0      0      0     25      0     35      0    309      0      0      0    -14      0      0     22    -56      0      0      0      0      0    170      0     65    -24      0      0    -19      0    323      0      0      0      0     -4      0      0      0      0     32      0      0      0      0      0      0      0      0      0      0      0    264      0      0      0
     10     13     10	    287    171     47     47      3      0      0      0      0      0      0      0      0      0      0      0    101      0      0      0      0    174      0      0      0      0      0      0     25     43      0      0     87      0      0      0      0      0      0      0      0     18      0      0     15      0      0      0      0    -40      0      0      0      0      0      0     83    -34     74      0      0      0      0      0      0
     11     12     10	    298     56     44     47      4      0      0     19      0      0      0     44      0      0      0      0      0      0      0      0      0      0      0      0      0      0     96      0      0      0     95      0      0      0      0      0      0     72      0      0      0      0      0    -22      0      0      0      0    200      0      0      0      0      0      0      0    172      0      0      0      0      0      0      0      0
     10     15     15	    254     70     24     31      6      0      0      0      0    -44      0      0    -30      0      0     82      0      0      0     78      0      0      0      0     68      0      0      0      0      0     -6      0      0      0      0      0    129      0      0      0      0      0      0     17     58      0      0    200      0     65      0      0      0      0      0      0    201      0     75      0     34      0      0      0      0
      9     11     15	    338    124     24     29     10      0    210      0    161      0      0      0      0     45      0     11      0      0     65      0      0      0     91      0      0    213      0      0      0      0      0      0      0      0      0      0    133      0      0      0      0      0    139      0      0     32    -40      0     65      0      0      0      0      0      0      0      0      0      0      0      0      0      0    270      0
     11     11     11	    113     61     34     36      9      0     85      0      0      0      0      0     -1      0      0      0     31      0      0      0      0      0     17      9      0      0      0     83      0    -10      0      0      0     78      0      0      8     64     53      0      0      0     55      0      0      0      0      0      0      0      0      0      0      0      0      0     37      0      0      0      0      0      0      0     70
     10     11     10	    321    224     35     42     10     21      0      0      0      0      0      0      0      0      0    245      0    109      0      0     19      0      0      0      0    200    250      0      0      0      0      0      0      0      0     80      0      0    113      0    -13      0      0      0      0      0      0      0      0      0      0      0      0      0      0      0      0      0      0      0      0      0      0      0      0
     12     11     13	    269    126     15     23      7      0    -15      0      0      0      0      0      0      0    101      0      0      0      0      0     58      0      0      0      0      0     15      0      0      0      0      0      0      0      0    161      0      0      0      0      0      0      0      0     25      0      0      0      0      0      0      0      0     95      0      0      0      0      0      0      0      0      0      0    215
      9     11     10	    468    261     14     14      5      0      0      0    137      0      0      0      0      0    153    -18    164      0      0      0      0      0      0    156      0      0    355      0      0     65      0      0      0      0      0    106      0      0      0    315      0     47      0    110      0      0      0      0      0      0      0      0     95      0      0    190    262      0      0      0      0      0      0      0      0
      8     10     10	    453     92     28     42      2      0      0      0      0      0    190      0     86     55      0      0      0    246     64      0     31      0      0     -2      0      0      0      0      0     59      0      0      0      0      0    108      0      0      0    289     40     47      0      0     15      0      0      0      0      0      0      0      0      0      0    218      0      0      0      0      0      0      0    -77      0
     11     15     15	    358    213     43     45      1      0      0      0      0      0      0    162      0      0      0      0      0      0     29      0      0     92     15      0      0      0      0      0      0      0      0      0      0      0    151      0      0      0      0      0      0      0      0    -30      0      0      0      0      0      0      0      0      0    190    218      0    123      0    134      0    203    -24      0      0      0
     11     10     10	    480    209     35     41      5      0      0      0      0      0      0      0      0    110      0      0      0      0      0      0      2      0     43      0      0      0      0    -41      0      0      0      0      0      0      0      0      0      0      0      0      0     91      0    219    209      0     83    172    201      0     37      0      0    262      0    123      0      0      0      0      0      0      0      0      0
     11     14     13	    489    161     11     14      3      0      0      0      0      0    104      0      0      0      0      0      0      0      0      0     69     82      0     -1      0      0      0    189      0      0      0      0      0      0      0    148      0      0      0      0      0     22      0     72      0      0    -34      0      0      0      0      0      0      0      0      0      0      0     55     65     87      0      0      0      0
     12     11     10	    493     68     14     42      1      0    298      0    -16      0      0    265      0      0      0      0     66    108      0      0     64      0      0      0      0      0      0      0      0      0      0      0      0     51      0      0      0      0      0      0    102     43      0      0      0      0     74      0     75      0      0      0      0      0      0    134      0     55      0      0      0      0      0    -46      0
      7     11     13	    313    123     44     48      1      0      0     15      0      0    120      0      0      0      0     19      0      0      0     48      0      0    -22      0      0      0      0      0      0     57      0      0      0      0      0      0      0     73     97      0      0      0      0      0    176      0      0      0      0      0      0      0      0      0      0      0      0     65      0      0      0      0      0      0    102
     10     11     12	    475    197     31     42      1      0      0     20      0      0      0      0      0      0      0    165      2      0      0     63      0      0      0      0    140      0      0      0      0      0      0      0      0      1      0      0      0    199      0      0      0      0      0      0      0      0      0      0     34      0      0      0      0      0      0    203      0     87      0      0      0      0      0    190    145
      8     15     11	    432     67     45     48      2      0      0      0      0      0      0      0      0      0      0    124      0    196      0      0      0      0     73      0      0      0      0      0      0      0     82      0      0      0      0      0      0      0    -26      0      0     93      0      0      0    264      0      0      0      0      0      0      0      0      0    -24      0      0      0      0      0      0      0      0      0
      6     12     15	    136     76     21     28      7    102      0      0      0      0      0     39      0      0     -4    109      0     47      0      0      0      0      0      0      0      0     76      0     51      0      0     19      0      0      0      0     45      0      0      0      0      0      0      0    -10      0      0      0      0      0      0      0      0      0      0      0      0      0      0      0      0      0      0      0      0
      8     14     12	    464    138     18     21      2      0      0     49      0     70    311      0      0      0    144      0    215      0      0      0      0    170      0      0    339      0     73      0      0      0     22      0      0      0      0      0     24      0      0      0    -33      0     78      0      0      0      0      0      0    270      0      0      0      0    -77      0      0      0    -46      0    190      0      0      0      0
      9     14     10	    337     52     16     47      7      0      0      0      0      0    169      0     52      0      0      0    -14      0      0      0     -8      0      0      0      0      0      0      0      0      0      0      0      9      0      0      0      0      0      2      0      0      0    -54      0      0      0      0      0      0      0     70      0    215      0      0      0      0      0      0    102    145      0      0      0      0